(set-info :source |printed by MathSAT|)
(declare-fun bump () Bool)
(declare-fun call_voiture.meter () Bool)
(declare-fun call_voiture.ite3 () Int)
(declare-fun _OK_ () Bool)
(declare-fun call_voiture.bump () Bool)
(declare-fun call_voiture.speed () Int)
(declare-fun param_m () Bool)
(declare-fun flby () Bool)
(declare-fun call_excludes2.excludes () Bool)
(declare-fun dist () Int)
(declare-fun call_voiture.flby () Bool)
(declare-fun call_Sofar.Sofar () Bool)
(declare-fun call_voiture.time () Int)
(declare-fun move () Bool)
(declare-fun call_voiture.flby4 () Int)
(declare-fun call_voiture.flby3 () Bool)
(declare-fun call_voiture.flby6 () Int)
(declare-fun call_voiture.flby2 () Bool)
(declare-fun call_voiture.flby5 () Int)
(declare-fun toofast () Bool)
(declare-fun meter () Bool)
(declare-fun call_voiture.stop () Bool)
(declare-fun second () Bool)
(declare-fun call_voiture.second () Bool)
(declare-fun call_voiture.dist () Int)
(declare-fun call_voiture.toofast () Bool)
(declare-fun env () Bool)
(declare-fun speed () Int)
(declare-fun time () Int)
(declare-fun stop () Bool)
(declare-fun param_s () Bool)
(declare-fun call_voiture.ite2 () Int)
(declare-fun call_Sofar.flby () Bool)
(declare-fun call_voiture.move () Bool)
(define-fun .def_371 () Bool (= call_Sofar.flby call_Sofar.Sofar))
(define-fun .def_367 () Bool (and param_s param_m))
(define-fun .def_368 () Bool (not .def_367))
(define-fun .def_369 () Bool (= call_excludes2.excludes .def_368))
(define-fun .def_363 () Bool (= call_voiture.flby call_voiture.meter))
(define-fun .def_361 () Bool (= call_voiture.flby2 call_voiture.second))
(define-fun .def_358 () Bool (= call_voiture.flby3 call_voiture.move))
(define-fun .def_355 () Bool (= call_voiture.ite3 0))
(define-fun .def_351 () Bool (not call_voiture.move))
(define-fun .def_352 () Bool (or call_voiture.second .def_351))
(define-fun .def_354 () Bool (not .def_352))
(define-fun .def_356 () Bool (or .def_354 .def_355))
(define-fun .def_350 () Bool (= call_voiture.ite2 call_voiture.ite3))
(define-fun .def_353 () Bool (or .def_350 .def_352))
(define-fun .def_357 () Bool (and .def_353 .def_356))
(define-fun .def_359 () Bool (and .def_357 .def_358))
(define-fun .def_346 () Bool (= call_voiture.flby6 call_voiture.time))
(define-fun .def_344 () Bool (= call_voiture.flby5 call_voiture.speed))
(define-fun .def_342 () Bool (= call_voiture.flby4 call_voiture.dist))
(define-fun .def_339 () Bool (= call_voiture.dist 10))
(define-fun .def_340 () Bool (= call_voiture.bump .def_339))
(define-fun .def_336 () Bool (<= 4 call_voiture.time))
(define-fun .def_337 () Bool (= call_voiture.stop .def_336))
(define-fun .def_333 () Bool (<= 3 call_voiture.speed))
(define-fun .def_334 () Bool (= call_voiture.toofast .def_333))
(define-fun .def_331 () Bool (= env call_Sofar.Sofar))
(define-fun .def_327 () Bool (= meter call_voiture.meter))
(define-fun .def_323 () Bool (= second call_voiture.second))
(define-fun .def_319 () Bool (= move call_voiture.move))
(define-fun .def_315 () Bool (= time call_voiture.time))
(define-fun .def_311 () Bool (= speed call_voiture.speed))
(define-fun .def_307 () Bool (= dist call_voiture.dist))
(define-fun .def_303 () Bool (= bump call_voiture.bump))
(define-fun .def_299 () Bool (= stop call_voiture.stop))
(define-fun .def_295 () Bool (= toofast call_voiture.toofast))
(define-fun .def_292 () Bool (= flby _OK_))
(define-fun .def_296 () Bool (and .def_292 .def_295))
(define-fun .def_300 () Bool (and .def_296 .def_299))
(define-fun .def_304 () Bool (and .def_300 .def_303))
(define-fun .def_308 () Bool (and .def_304 .def_307))
(define-fun .def_312 () Bool (and .def_308 .def_311))
(define-fun .def_316 () Bool (and .def_312 .def_315))
(define-fun .def_320 () Bool (and .def_316 .def_319))
(define-fun .def_324 () Bool (and .def_320 .def_323))
(define-fun .def_328 () Bool (and .def_324 .def_327))
(define-fun .def_332 () Bool (and .def_328 .def_331))
(define-fun .def_335 () Bool (and .def_332 .def_334))
(define-fun .def_338 () Bool (and .def_335 .def_337))
(define-fun .def_341 () Bool (and .def_338 .def_340))
(define-fun .def_343 () Bool (and .def_341 .def_342))
(define-fun .def_345 () Bool (and .def_343 .def_344))
(define-fun .def_347 () Bool (and .def_345 .def_346))
(define-fun .def_360 () Bool (and .def_347 .def_359))
(define-fun .def_362 () Bool (and .def_360 .def_361))
(define-fun .def_364 () Bool (and .def_362 .def_363))
(define-fun .def_370 () Bool (and .def_364 .def_369))
(define-fun .def_372 () Bool (and .def_370 .def_371))
(define-fun .def_289 () Bool (= call_excludes2.excludes call_Sofar.flby))
(define-fun .def_285 () Bool (= call_voiture.flby6 0))
(define-fun .def_282 () Bool (= call_voiture.flby5 0))
(define-fun .def_279 () Bool (= call_voiture.flby4 0))
(define-fun .def_274 () Bool (not call_voiture.flby2))
(define-fun .def_270 () Bool (not call_voiture.flby))
(define-fun .def_272 () Bool (and .def_270 flby))
(define-fun .def_275 () Bool (and .def_272 .def_274))
(define-fun .def_277 () Bool (and .def_275 call_voiture.flby3))
(define-fun .def_280 () Bool (and .def_277 .def_279))
(define-fun .def_283 () Bool (and .def_280 .def_282))
(define-fun .def_286 () Bool (and .def_283 .def_285))
(define-fun .def_290 () Bool (and .def_286 .def_289))
(define-fun .def_373 () Bool (and .def_290 .def_372))
(assert .def_373)
